<?xml version = "1.0" standalone="yes"?>
<!-- This file has been generated by DOcplex version 2.23.222  -->
<CPLEXSolution version="1.0">
 <header
   problemName="CVRP"
   objectiveValue="16889.1"
  />
 <variables>
  <variable name="x_0_1" index="0" value="1.00000"/>
  <variable name="x_0_3" index="2" value="1.00000"/>
  <variable name="x_0_7" index="6" value="1.00000"/>
  <variable name="x_0_8" index="7" value="1.00000"/>
  <variable name="x_0_11" index="10" value="1.00000"/>
  <variable name="x_0_12" index="11" value="1.00000"/>
  <variable name="x_0_14" index="13" value="1.00000"/>
  <variable name="x_0_15" index="14" value="1.00000"/>
  <variable name="x_0_18" index="17" value="1.00000"/>
  <variable name="x_0_19" index="18" value="1.00000"/>
  <variable name="x_0_20" index="19" value="1.00000"/>
  <variable name="x_0_22" index="21" value="1.00000"/>
  <variable name="x_0_24" index="23" value="1.00000"/>
  <variable name="x_0_25" index="24" value="1.00000"/>
  <variable name="x_0_26" index="25" value="1.00000"/>
  <variable name="x_0_27" index="26" value="1.00000"/>
  <variable name="x_1_28" index="56" value="1.00000"/>
  <variable name="x_2_0" index="58" value="1.00000"/>
  <variable name="x_3_0" index="87" value="1.00000"/>
  <variable name="x_4_23" index="138" value="1.00000"/>
  <variable name="x_5_16" index="160" value="1.00000"/>
  <variable name="x_6_0" index="174" value="1.00000"/>
  <variable name="x_7_0" index="203" value="1.00000"/>
  <variable name="x_8_10" index="241" value="1.00000"/>
  <variable name="x_9_0" index="261" value="1.00000"/>
  <variable name="x_10_2" index="292" value="1.00000"/>
  <variable name="x_11_9" index="328" value="1.00000"/>
  <variable name="x_12_0" index="348" value="1.00000"/>
  <variable name="x_13_0" index="377" value="1.00000"/>
  <variable name="x_14_21" index="426" value="1.00000"/>
  <variable name="x_15_5" index="440" value="1.00000"/>
  <variable name="x_16_13" index="477" value="1.00000"/>
  <variable name="x_17_6" index="499" value="1.00000"/>
  <variable name="x_18_0" index="522" value="1.00000"/>
  <variable name="x_19_17" index="568" value="1.00000"/>
  <variable name="x_20_29" index="608" value="1.00000"/>
  <variable name="x_21_0" index="609" value="1.00000"/>
  <variable name="x_22_4" index="642" value="1.00000"/>
  <variable name="x_23_0" index="667" value="1.00000"/>
  <variable name="x_24_0" index="696" value="1.00000"/>
  <variable name="x_25_0" index="725" value="1.00000"/>
  <variable name="x_26_0" index="754" value="1.00000"/>
  <variable name="x_27_0" index="783" value="1.00000"/>
  <variable name="x_28_0" index="812" value="1.00000"/>
  <variable name="x_29_0" index="841" value="1.00000"/>
  <variable name="u_1" index="870" value="69.00000"/>
  <variable name="u_2" index="871" value="79.00000"/>
  <variable name="u_3" index="872" value="70.00000"/>
  <variable name="u_4" index="873" value="56.00000"/>
  <variable name="u_5" index="874" value="60.00000"/>
  <variable name="u_6" index="875" value="79.00000"/>
  <variable name="u_7" index="876" value="57.00000"/>
  <variable name="u_8" index="877" value="47.00000"/>
  <variable name="u_9" index="878" value="79.00000"/>
  <variable name="u_10" index="879" value="75.00000"/>
  <variable name="u_11" index="880" value="53.00000"/>
  <variable name="u_12" index="881" value="79.00000"/>
  <variable name="u_13" index="882" value="76.00000"/>
  <variable name="u_14" index="883" value="48.00000"/>
  <variable name="u_15" index="884" value="34.00000"/>
  <variable name="u_16" index="885" value="71.00000"/>
  <variable name="u_17" index="886" value="61.00000"/>
  <variable name="u_18" index="887" value="72.00000"/>
  <variable name="u_19" index="888" value="13.00000"/>
  <variable name="u_20" index="889" value="42.00000"/>
  <variable name="u_21" index="890" value="79.00000"/>
  <variable name="u_22" index="891" value="41.00000"/>
  <variable name="u_23" index="892" value="79.00000"/>
  <variable name="u_24" index="893" value="73.00000"/>
  <variable name="u_25" index="894" value="66.00000"/>
  <variable name="u_26" index="895" value="63.00000"/>
  <variable name="u_27" index="896" value="79.00000"/>
  <variable name="u_28" index="897" value="79.00000"/>
  <variable name="u_29" index="898" value="75.00000"/>
 </variables>
</CPLEXSolution>
